
  32    4
  10   10   10   10

   0   0   0   0   0   1 2 
   2  10  10  10  10   1 3 
   3  10  10  10  10   1 4 
   9  10  10  10  10   1 5 
   3  10  10  10  10   1 6 
   7  10  10  10  10   2 31 7 
   6  10  10  10  10   2 26 8 
   6  10  10  10  10   1 9 
   9  10  10  10  10   2 23 10 
   5  10  10  10  10   1 11 
   4  10  10  10  10   1 12 
   7  10  10  10  10   3 30 28 13 
   8  10  10  10  10   2 29 14 
  10  10  10  10  10   1 15 
  10  10  10  10  10   1 16 
   9  10  10  10  10   1 17 
   7  10  10  10  10   1 18 
   4  10  10  10  10   1 19 
  10  10  10  10  10   1 20 
   2  10  10  10  10   1 21 
   4  10  10  10  10   1 22 
   9  10  10  10  10   1 24 
   6  10  10  10  10   2 28 27 
   8  10  10  10  10   1 25 
   7  10  10  10  10   1 27 
   5  10  10  10  10   1 28 
   8  10  10  10  10   1 32
   3  10  10  10  10   1 32
   2  10  10  10  10   1 32
   8  10  10  10  10   1 32
   9  10  10  10  10   1 32
   0   0   0   0   0   0 
